&inputpp
    outdir='./tmp'
    prefix='Te',
    seedname = 'Te'
    spin_component = 'none'
    write_unk = .true.
/
