&inputpp
    outdir='./tmp/scf'
    prefix='BaTiO3',
    seedname = 'BaTiO3'
    spin_component = 'none'
    write_unk = .true.
/
