&control
   calculation = 'scf'
   prefix = 'BaTiO3'
   restart_mode = 'from_scratch'
   tstress = .true.,
   tprnfor = .true.,
   pseudo_dir = './PP/'
   outdir='./tmp/scf'
/
&system
  ibrav= 6, 
  nat= 5,
  ntyp= 3,
  celldm(1)=7.556637,
  celldm(3)=1.005852, 
  occupations = 'smearing', 
  smearing = 'm-p'
  degauss = 0.01
  ecutwfc = 90,
  ecutrho = 360,
  lspinorb=.true.
  noncolin=.true.
  starting_magnetization=0.0
/
&electrons
   mixing_beta = 0.7
   conv_thr = 1.0d-10
/
ATOMIC_SPECIES
  Ba 137.327 Ba.upf
  Ti 47.867 Ti.upf
  O 15.9994 O.upf
ATOMIC_POSITIONS (crystal)
  Ba  0.0000000000  0.0000000000  0.0000000000
  Ti  0.5000000000  0.5000000000  0.5021000000
   O  0.5000000000  0.0000000000  0.5130000000
   O  0.0000000000  0.5000000000  0.5130000000
   O  0.5000000000  0.5000000000  0.9847000000
K_POINTS {automatic}
  6 6 6 0 0 0
