&control
   calculation = 'bands'
   prefix = 'BaTiO3'
   restart_mode = 'from_scratch'
   tstress = .true.,
   tprnfor = .true.,
   pseudo_dir = './PP/'
   outdir='./tmp'
/
&system
  ibrav= 6,
  nat= 5,
  ntyp= 3,
  celldm(1)=7.556637,
  celldm(3)=1.005852, 
  occupations = 'smearing', 
  smearing = 'm-p'
  degauss = 0.01
  ecutwfc = 90,
  ecutrho = 360,
  lspinorb=.true.
  noncolin=.true.
  starting_magnetization=0.0
  nbnd = 58
  nosym =.true.
/
&electrons
   mixing_beta = 0.7
   conv_thr = 1.0d-10
/
ATOMIC_SPECIES
  Ba 137.327 Ba.upf
  Ti 47.867 Ti.upf
  O 15.9994 O.upf
ATOMIC_POSITIONS (crystal)
  Ba  0.0000000000  0.0000000000  0.0000000000
  Ti  0.5000000000  0.5000000000  0.5021000000
   O  0.5000000000  0.0000000000  0.5130000000
   O  0.0000000000  0.5000000000  0.5130000000
   O  0.5000000000  0.5000000000  0.9847000000
K_POINTS crystal
216
  0.00000000  0.00000000  0.00000000  4.629630e-03
  0.00000000  0.00000000  0.16666667  4.629630e-03
  0.00000000  0.00000000  0.33333333  4.629630e-03
  0.00000000  0.00000000  0.50000000  4.629630e-03
  0.00000000  0.00000000  0.66666667  4.629630e-03
  0.00000000  0.00000000  0.83333333  4.629630e-03
  0.00000000  0.16666667  0.00000000  4.629630e-03
  0.00000000  0.16666667  0.16666667  4.629630e-03
  0.00000000  0.16666667  0.33333333  4.629630e-03
  0.00000000  0.16666667  0.50000000  4.629630e-03
  0.00000000  0.16666667  0.66666667  4.629630e-03
  0.00000000  0.16666667  0.83333333  4.629630e-03
  0.00000000  0.33333333  0.00000000  4.629630e-03
  0.00000000  0.33333333  0.16666667  4.629630e-03
  0.00000000  0.33333333  0.33333333  4.629630e-03
  0.00000000  0.33333333  0.50000000  4.629630e-03
  0.00000000  0.33333333  0.66666667  4.629630e-03
  0.00000000  0.33333333  0.83333333  4.629630e-03
  0.00000000  0.50000000  0.00000000  4.629630e-03
  0.00000000  0.50000000  0.16666667  4.629630e-03
  0.00000000  0.50000000  0.33333333  4.629630e-03
  0.00000000  0.50000000  0.50000000  4.629630e-03
  0.00000000  0.50000000  0.66666667  4.629630e-03
  0.00000000  0.50000000  0.83333333  4.629630e-03
  0.00000000  0.66666667  0.00000000  4.629630e-03
  0.00000000  0.66666667  0.16666667  4.629630e-03
  0.00000000  0.66666667  0.33333333  4.629630e-03
  0.00000000  0.66666667  0.50000000  4.629630e-03
  0.00000000  0.66666667  0.66666667  4.629630e-03
  0.00000000  0.66666667  0.83333333  4.629630e-03
  0.00000000  0.83333333  0.00000000  4.629630e-03
  0.00000000  0.83333333  0.16666667  4.629630e-03
  0.00000000  0.83333333  0.33333333  4.629630e-03
  0.00000000  0.83333333  0.50000000  4.629630e-03
  0.00000000  0.83333333  0.66666667  4.629630e-03
  0.00000000  0.83333333  0.83333333  4.629630e-03
  0.16666667  0.00000000  0.00000000  4.629630e-03
  0.16666667  0.00000000  0.16666667  4.629630e-03
  0.16666667  0.00000000  0.33333333  4.629630e-03
  0.16666667  0.00000000  0.50000000  4.629630e-03
  0.16666667  0.00000000  0.66666667  4.629630e-03
  0.16666667  0.00000000  0.83333333  4.629630e-03
  0.16666667  0.16666667  0.00000000  4.629630e-03
  0.16666667  0.16666667  0.16666667  4.629630e-03
  0.16666667  0.16666667  0.33333333  4.629630e-03
  0.16666667  0.16666667  0.50000000  4.629630e-03
  0.16666667  0.16666667  0.66666667  4.629630e-03
  0.16666667  0.16666667  0.83333333  4.629630e-03
  0.16666667  0.33333333  0.00000000  4.629630e-03
  0.16666667  0.33333333  0.16666667  4.629630e-03
  0.16666667  0.33333333  0.33333333  4.629630e-03
  0.16666667  0.33333333  0.50000000  4.629630e-03
  0.16666667  0.33333333  0.66666667  4.629630e-03
  0.16666667  0.33333333  0.83333333  4.629630e-03
  0.16666667  0.50000000  0.00000000  4.629630e-03
  0.16666667  0.50000000  0.16666667  4.629630e-03
  0.16666667  0.50000000  0.33333333  4.629630e-03
  0.16666667  0.50000000  0.50000000  4.629630e-03
  0.16666667  0.50000000  0.66666667  4.629630e-03
  0.16666667  0.50000000  0.83333333  4.629630e-03
  0.16666667  0.66666667  0.00000000  4.629630e-03
  0.16666667  0.66666667  0.16666667  4.629630e-03
  0.16666667  0.66666667  0.33333333  4.629630e-03
  0.16666667  0.66666667  0.50000000  4.629630e-03
  0.16666667  0.66666667  0.66666667  4.629630e-03
  0.16666667  0.66666667  0.83333333  4.629630e-03
  0.16666667  0.83333333  0.00000000  4.629630e-03
  0.16666667  0.83333333  0.16666667  4.629630e-03
  0.16666667  0.83333333  0.33333333  4.629630e-03
  0.16666667  0.83333333  0.50000000  4.629630e-03
  0.16666667  0.83333333  0.66666667  4.629630e-03
  0.16666667  0.83333333  0.83333333  4.629630e-03
  0.33333333  0.00000000  0.00000000  4.629630e-03
  0.33333333  0.00000000  0.16666667  4.629630e-03
  0.33333333  0.00000000  0.33333333  4.629630e-03
  0.33333333  0.00000000  0.50000000  4.629630e-03
  0.33333333  0.00000000  0.66666667  4.629630e-03
  0.33333333  0.00000000  0.83333333  4.629630e-03
  0.33333333  0.16666667  0.00000000  4.629630e-03
  0.33333333  0.16666667  0.16666667  4.629630e-03
  0.33333333  0.16666667  0.33333333  4.629630e-03
  0.33333333  0.16666667  0.50000000  4.629630e-03
  0.33333333  0.16666667  0.66666667  4.629630e-03
  0.33333333  0.16666667  0.83333333  4.629630e-03
  0.33333333  0.33333333  0.00000000  4.629630e-03
  0.33333333  0.33333333  0.16666667  4.629630e-03
  0.33333333  0.33333333  0.33333333  4.629630e-03
  0.33333333  0.33333333  0.50000000  4.629630e-03
  0.33333333  0.33333333  0.66666667  4.629630e-03
  0.33333333  0.33333333  0.83333333  4.629630e-03
  0.33333333  0.50000000  0.00000000  4.629630e-03
  0.33333333  0.50000000  0.16666667  4.629630e-03
  0.33333333  0.50000000  0.33333333  4.629630e-03
  0.33333333  0.50000000  0.50000000  4.629630e-03
  0.33333333  0.50000000  0.66666667  4.629630e-03
  0.33333333  0.50000000  0.83333333  4.629630e-03
  0.33333333  0.66666667  0.00000000  4.629630e-03
  0.33333333  0.66666667  0.16666667  4.629630e-03
  0.33333333  0.66666667  0.33333333  4.629630e-03
  0.33333333  0.66666667  0.50000000  4.629630e-03
  0.33333333  0.66666667  0.66666667  4.629630e-03
  0.33333333  0.66666667  0.83333333  4.629630e-03
  0.33333333  0.83333333  0.00000000  4.629630e-03
  0.33333333  0.83333333  0.16666667  4.629630e-03
  0.33333333  0.83333333  0.33333333  4.629630e-03
  0.33333333  0.83333333  0.50000000  4.629630e-03
  0.33333333  0.83333333  0.66666667  4.629630e-03
  0.33333333  0.83333333  0.83333333  4.629630e-03
  0.50000000  0.00000000  0.00000000  4.629630e-03
  0.50000000  0.00000000  0.16666667  4.629630e-03
  0.50000000  0.00000000  0.33333333  4.629630e-03
  0.50000000  0.00000000  0.50000000  4.629630e-03
  0.50000000  0.00000000  0.66666667  4.629630e-03
  0.50000000  0.00000000  0.83333333  4.629630e-03
  0.50000000  0.16666667  0.00000000  4.629630e-03
  0.50000000  0.16666667  0.16666667  4.629630e-03
  0.50000000  0.16666667  0.33333333  4.629630e-03
  0.50000000  0.16666667  0.50000000  4.629630e-03
  0.50000000  0.16666667  0.66666667  4.629630e-03
  0.50000000  0.16666667  0.83333333  4.629630e-03
  0.50000000  0.33333333  0.00000000  4.629630e-03
  0.50000000  0.33333333  0.16666667  4.629630e-03
  0.50000000  0.33333333  0.33333333  4.629630e-03
  0.50000000  0.33333333  0.50000000  4.629630e-03
  0.50000000  0.33333333  0.66666667  4.629630e-03
  0.50000000  0.33333333  0.83333333  4.629630e-03
  0.50000000  0.50000000  0.00000000  4.629630e-03
  0.50000000  0.50000000  0.16666667  4.629630e-03
  0.50000000  0.50000000  0.33333333  4.629630e-03
  0.50000000  0.50000000  0.50000000  4.629630e-03
  0.50000000  0.50000000  0.66666667  4.629630e-03
  0.50000000  0.50000000  0.83333333  4.629630e-03
  0.50000000  0.66666667  0.00000000  4.629630e-03
  0.50000000  0.66666667  0.16666667  4.629630e-03
  0.50000000  0.66666667  0.33333333  4.629630e-03
  0.50000000  0.66666667  0.50000000  4.629630e-03
  0.50000000  0.66666667  0.66666667  4.629630e-03
  0.50000000  0.66666667  0.83333333  4.629630e-03
  0.50000000  0.83333333  0.00000000  4.629630e-03
  0.50000000  0.83333333  0.16666667  4.629630e-03
  0.50000000  0.83333333  0.33333333  4.629630e-03
  0.50000000  0.83333333  0.50000000  4.629630e-03
  0.50000000  0.83333333  0.66666667  4.629630e-03
  0.50000000  0.83333333  0.83333333  4.629630e-03
  0.66666667  0.00000000  0.00000000  4.629630e-03
  0.66666667  0.00000000  0.16666667  4.629630e-03
  0.66666667  0.00000000  0.33333333  4.629630e-03
  0.66666667  0.00000000  0.50000000  4.629630e-03
  0.66666667  0.00000000  0.66666667  4.629630e-03
  0.66666667  0.00000000  0.83333333  4.629630e-03
  0.66666667  0.16666667  0.00000000  4.629630e-03
  0.66666667  0.16666667  0.16666667  4.629630e-03
  0.66666667  0.16666667  0.33333333  4.629630e-03
  0.66666667  0.16666667  0.50000000  4.629630e-03
  0.66666667  0.16666667  0.66666667  4.629630e-03
  0.66666667  0.16666667  0.83333333  4.629630e-03
  0.66666667  0.33333333  0.00000000  4.629630e-03
  0.66666667  0.33333333  0.16666667  4.629630e-03
  0.66666667  0.33333333  0.33333333  4.629630e-03
  0.66666667  0.33333333  0.50000000  4.629630e-03
  0.66666667  0.33333333  0.66666667  4.629630e-03
  0.66666667  0.33333333  0.83333333  4.629630e-03
  0.66666667  0.50000000  0.00000000  4.629630e-03
  0.66666667  0.50000000  0.16666667  4.629630e-03
  0.66666667  0.50000000  0.33333333  4.629630e-03
  0.66666667  0.50000000  0.50000000  4.629630e-03
  0.66666667  0.50000000  0.66666667  4.629630e-03
  0.66666667  0.50000000  0.83333333  4.629630e-03
  0.66666667  0.66666667  0.00000000  4.629630e-03
  0.66666667  0.66666667  0.16666667  4.629630e-03
  0.66666667  0.66666667  0.33333333  4.629630e-03
  0.66666667  0.66666667  0.50000000  4.629630e-03
  0.66666667  0.66666667  0.66666667  4.629630e-03
  0.66666667  0.66666667  0.83333333  4.629630e-03
  0.66666667  0.83333333  0.00000000  4.629630e-03
  0.66666667  0.83333333  0.16666667  4.629630e-03
  0.66666667  0.83333333  0.33333333  4.629630e-03
  0.66666667  0.83333333  0.50000000  4.629630e-03
  0.66666667  0.83333333  0.66666667  4.629630e-03
  0.66666667  0.83333333  0.83333333  4.629630e-03
  0.83333333  0.00000000  0.00000000  4.629630e-03
  0.83333333  0.00000000  0.16666667  4.629630e-03
  0.83333333  0.00000000  0.33333333  4.629630e-03
  0.83333333  0.00000000  0.50000000  4.629630e-03
  0.83333333  0.00000000  0.66666667  4.629630e-03
  0.83333333  0.00000000  0.83333333  4.629630e-03
  0.83333333  0.16666667  0.00000000  4.629630e-03
  0.83333333  0.16666667  0.16666667  4.629630e-03
  0.83333333  0.16666667  0.33333333  4.629630e-03
  0.83333333  0.16666667  0.50000000  4.629630e-03
  0.83333333  0.16666667  0.66666667  4.629630e-03
  0.83333333  0.16666667  0.83333333  4.629630e-03
  0.83333333  0.33333333  0.00000000  4.629630e-03
  0.83333333  0.33333333  0.16666667  4.629630e-03
  0.83333333  0.33333333  0.33333333  4.629630e-03
  0.83333333  0.33333333  0.50000000  4.629630e-03
  0.83333333  0.33333333  0.66666667  4.629630e-03
  0.83333333  0.33333333  0.83333333  4.629630e-03
  0.83333333  0.50000000  0.00000000  4.629630e-03
  0.83333333  0.50000000  0.16666667  4.629630e-03
  0.83333333  0.50000000  0.33333333  4.629630e-03
  0.83333333  0.50000000  0.50000000  4.629630e-03
  0.83333333  0.50000000  0.66666667  4.629630e-03
  0.83333333  0.50000000  0.83333333  4.629630e-03
  0.83333333  0.66666667  0.00000000  4.629630e-03
  0.83333333  0.66666667  0.16666667  4.629630e-03
  0.83333333  0.66666667  0.33333333  4.629630e-03
  0.83333333  0.66666667  0.50000000  4.629630e-03
  0.83333333  0.66666667  0.66666667  4.629630e-03
  0.83333333  0.66666667  0.83333333  4.629630e-03
  0.83333333  0.83333333  0.00000000  4.629630e-03
  0.83333333  0.83333333  0.16666667  4.629630e-03
  0.83333333  0.83333333  0.33333333  4.629630e-03
  0.83333333  0.83333333  0.50000000  4.629630e-03
  0.83333333  0.83333333  0.66666667  4.629630e-03
  0.83333333  0.83333333  0.83333333  4.629630e-03
